Version identifier: 12.10.0.0 | 2019-11-26 | 843d4de
CPXPARAM_WorkMem                                 28672
Tried aggregator 2 times.
MIP Presolve modified 43 coefficients.
Aggregator did 45 substitutions.
Reduced MIP has 245 rows, 300 columns, and 1155 nonzeros.
Reduced MIP has 300 binaries, 0 generals, 0 SOSs, and 0 indicators.
Presolve time = 0,00 sec. (1,37 ticks)
Found incumbent of value 222,000000 after 0,00 sec. (2,47 ticks)
Probing time = 0,00 sec. (0,45 ticks)
Tried aggregator 1 time.
Detecting symmetries...
MIP Presolve eliminated 52 rows and 0 columns.
MIP Presolve added 104 rows and 0 columns.
Reduced MIP has 297 rows, 300 columns, and 1207 nonzeros.
Reduced MIP has 300 binaries, 0 generals, 0 SOSs, and 0 indicators.
Presolve time = 0,00 sec. (1,36 ticks)
Probing time = 0,00 sec. (0,44 ticks)
Clique table members: 801.
MIP emphasis: balance optimality and feasibility.
MIP search method: dynamic search.
Parallel mode: deterministic, using up to 16 threads.
Root relaxation solution time = 0,00 sec. (1,51 ticks)

        Nodes                                         Cuts/
   Node  Left     Objective  IInf  Best Integer    Best Bound    ItCnt     Gap

*     0+    0                          222,0000        0,0000           100,00%
*     0+    0                          125,0000        0,0000           100,00%
*     0+    0                          112,0000        0,0000           100,00%
      0     0       45,0000   187      112,0000       45,0000      157   59,82%
      0     0       46,9493   187      112,0000     Cuts: 174      306   58,08%
      0     0       48,5714   187      112,0000     Cuts: 174      366   56,63%
      0     0       49,3171   187      112,0000     Cuts: 174      459   55,97%
      0     0       49,7679   187      112,0000     Cuts: 149      542   55,56%
      0     0       49,9075   187      112,0000     Cuts: 151      565   55,44%
      0     0       50,3867   187      112,0000      Cuts: 20      645   55,01%
      0     0       50,6384   187      112,0000     Cuts: 147      721   54,79%
      0     0       50,9178   187      112,0000      Cuts: 16      820   54,54%
*     0+    0                          105,0000       50,9178            51,51%
      0     0       51,0435   187      105,0000     Cuts: 101      901   51,39%
      0     0       52,5318   187      105,0000      Cuts: 41     1087   49,97%
      0     0       52,9144   187      105,0000     Cuts: 139     1189   49,61%
      0     0       53,0509   187      105,0000      Cuts: 95     1279   49,48%
      0     0       53,1874   187      105,0000     Cuts: 123     1359   49,35%
      0     0       53,2624   187      105,0000      Cuts: 10     1437   49,27%
      0     0       53,4253   187      105,0000      Cuts: 97     1496   49,12%
      0     0       53,4969   187      105,0000       Cuts: 8     1571   49,05%
      0     0       53,5507   187      105,0000      Cuts: 86     1639   43,81%
      0     0       54,4528   187      105,0000      Cuts: 37     1809   43,81%
      0     0       54,7286   187      105,0000      Cuts: 85     1932   43,81%
      0     2       54,7286   300      105,0000       58,9982     1932   43,81%
Elapsed time = 0,47 sec. (295,35 ticks, tree = 0,02 MB, solutions = 4)
   2041  1295       95,7038   130      105,0000       62,0766    82950   40,88%
   4518  2858       89,6251   172      105,0000       78,9566   186807   24,80%

Performing restart 1

Repeating presolve.
Tried aggregator 1 time.
Reduced MIP has 297 rows, 300 columns, and 1207 nonzeros.
Reduced MIP has 300 binaries, 0 generals, 0 SOSs, and 0 indicators.
Presolve time = 0,00 sec. (0,70 ticks)
Tried aggregator 1 time.
Reduced MIP has 297 rows, 300 columns, and 1207 nonzeros.
Reduced MIP has 300 binaries, 0 generals, 0 SOSs, and 0 indicators.
Presolve time = 0,00 sec. (0,95 ticks)
Represolve time = 0,02 sec. (9,05 ticks)
   4520     0       56,3692   300      105,0000      Cuts: 37   206197   23,91%
   4520     0       57,3854   300      105,0000      Cuts: 23   206370   23,91%
   4520     0       57,8156   300      105,0000      Cuts: 26   206524   23,91%
   4520     0       58,3843   300      105,0000      Cuts: 36   206661   23,91%
   4520     2       58,3843   300      105,0000       79,8972   206661   23,91%
   4528     5       65,4670   275      105,0000       79,8972   207469   23,91%
   5474   564       77,6759   249      105,0000       79,8972   246115   23,91%
   6633  1399       91,1555   166      105,0000       79,8972   314238   23,91%
   8172  2642       80,7013   230      105,0000       79,8972   379593   23,91%
   9585  3815       89,5084   217      105,0000       79,8972   452056   23,91%

Performing restart 2

Repeating presolve.
Tried aggregator 1 time.
Reduced MIP has 297 rows, 300 columns, and 1207 nonzeros.
Reduced MIP has 300 binaries, 0 generals, 0 SOSs, and 0 indicators.
Presolve time = 0,00 sec. (0,70 ticks)
Tried aggregator 1 time.
Reduced MIP has 297 rows, 300 columns, and 1207 nonzeros.
Reduced MIP has 300 binaries, 0 generals, 0 SOSs, and 0 indicators.
Presolve time = 0,00 sec. (0,95 ticks)
Represolve time = 0,02 sec. (13,90 ticks)
  10415     0       58,8556   300      105,0000      Cuts: 36   514867   23,91%
  10415     0       58,9517   300      105,0000      Cuts: 11   514934   23,91%
  10415     0       59,1105   300      105,0000      Cuts: 18   515014   23,91%
  10415     0       59,1798   300      105,0000      Cuts: 30   515090   23,91%
  10415     0       59,2015   300      105,0000      Cuts: 39   515154   23,91%
  10415     0       59,2184   300      105,0000      Cuts: 21   515222   23,91%
  10415     2       59,2184   300      105,0000       79,8972   515222   23,91%
  18273  4817       99,7171   133      105,0000       83,8935   784268   20,10%
Elapsed time = 5,00 sec. (4171,10 ticks, tree = 13,77 MB, solutions = 4)
  28749  9747        cutoff            105,0000       90,8341  1205395   13,49%
* 37717 12423      integral     0      104,0000       94,1315  1532978    9,49%
  39972 11492      102,2044     4      104,0000       94,9005  1633772    8,75%
  52232  3354        cutoff            104,0000      101,2519  2102470    2,64%

GUB cover cuts applied:  13
Clique cuts applied:  50
Cover cuts applied:  346
Flow cuts applied:  6
Mixed integer rounding cuts applied:  165
Zero-half cuts applied:  28
Lift and project cuts applied:  50
Gomory fractional cuts applied:  34

Root node processing (before b&c):
  Real time             =    0,47 sec. (294,87 ticks)
Parallel b&c, 16 threads:
  Real time             =    8,60 sec. (6840,30 ticks)
  Sync time (average)   =    2,05 sec.
  Wait time (average)   =    0,01 sec.
                          ------------
Total (root+branch&cut) =    9,07 sec. (7135,16 ticks)
